NAME /Users/henri/Research/solvers/instances/idol-instances/robust/collection/cbp_Subramanyam_et_al_2020/CapBud_N5_7/models/uncertain_technology_matrix/
ROWS
 N  OBJ
 L  capacity
 L  c_155
 L  c_156
 L  c_157
 L  c_158
 L  c_159
COLUMNS
    MARKER    'MARKER'                 'INTORG'
    x_0        OBJ        -4.32148
    x_0        c_155      1
    x_0        capacity   0.864296
    x_1        OBJ        -7.52135
    x_1        c_156      1
    x_1        capacity   1.50427
    x_2        OBJ        -8.29602
    x_2        c_157      1
    x_2        capacity   1.6592
    x_3        OBJ        -3.79034
    x_3        c_158      1
    x_3        capacity   0.758068
    x_4        OBJ        -0.965496
    x_4        c_159      1
    x_4        capacity   0.193099
    y_0        OBJ        -3.45718
    y_0        c_155      1
    y_0        capacity   0.864296
    y_1        OBJ        -6.01708
    y_1        c_156      1
    y_1        capacity   1.50427
    y_2        OBJ        -6.63682
    y_2        c_157      1
    y_2        capacity   1.6592
    y_3        OBJ        -3.03227
    y_3        c_158      1
    y_3        capacity   0.758068
    y_4        OBJ        -0.772397
    y_4        c_159      1
    y_4        capacity   0.193099
    MARKER    'MARKER'                 'INTEND'
RHS
    RHS       capacity   12.4473
    RHS       c_155      1
    RHS       c_156      1
    RHS       c_157      1
    RHS       c_158      1
    RHS       c_159      1
BOUNDS
 LI BND       x_0        0
 UI BND       x_0        1
 LI BND       x_1        0
 UI BND       x_1        1
 LI BND       x_2        0
 UI BND       x_2        1
 LI BND       x_3        0
 UI BND       x_3        1
 LI BND       x_4        0
 UI BND       x_4        1
 LI BND       y_0        0
 UI BND       y_0        1
 LI BND       y_1        0
 UI BND       y_1        1
 LI BND       y_2        0
 UI BND       y_2        1
 LI BND       y_3        0
 UI BND       y_3        1
 LI BND       y_4        0
 UI BND       y_4        1
ENDATA
